p cnf 653 415
-1416 -1434 -1676 -1801 0
-1423 -1541 -1734 -1802 0
-1423 -1434 -1541 -1676 -1801 0
-1442 -1541 -1676 -1801 0
-1416 -1435 -1453 -1676 -1801 0
-1435 -1455 -1676 -1801 0
-1435 -1459 -1541 -1676 -1801 0
-1436 -1462 -1480 -1676 -1801 0
-1436 -1469 -1481 -1676 -1801 0
-1437 -1487 -1676 -1801 0
-1437 -1469 -1489 -1676 -1801 0
-1437 -1493 -1541 -1676 -1801 0
-1438 -1462 -1507 -1676 -1801 0
-1439 -1514 -1676 -1801 0
-1439 -1462 -1515 -1676 -1801 0
-1440 -1520 -1676 -1801 0
-1440 -1462 -1521 -1676 -1801 0
-1440 -1469 -1522 -1676 -1801 0
-1440 -1528 -1541 -1676 -1801 0
-1441 -1531 -1676 -1801 0
-1441 -1469 -1532 -1676 -1801 0
-1441 -1537 -1541 -1676 -1801 0
-1435 -1453 -1552 -1676 -1801 0
-1435 -1453 -1557 -1676 -1801 0
-1438 -1504 -1559 -1676 -1801 0
-1438 -1504 -1566 -1676 -1801 0
-1570 -1676 -1801 0
-1577 -1676 -1801 0
-1435 -1588 -1676 -1801 0
-1435 -1594 -1676 -1801 0
-1436 -1616 -1676 -1801 0
-1436 -1622 -1676 -1801 0
-1437 -1626 -1676 -1801 0
-1438 -1643 -1676 -1801 0
-1438 -1646 -1676 -1801 0
-1439 -1654 -1676 -1801 0
-1440 -1658 -1676 -1801 0
-1441 -1665 -1676 -1801 0
-1677 -1801 0
-1423 -1453 -1541 -1678 -1801 0
-1462 -1679 -1801 0
-1423 -1478 -1541 -1680 -1801 0
-1423 -1485 -1541 -1681 -1801 0
-1423 -1494 -1541 -1682 -1801 0
-1423 -1511 -1541 -1683 -1801 0
-1423 -1519 -1541 -1684 -1801 0
-1425 -1469 -1529 -1685 -1801 0
-1541 -1686 -1801 0
-1462 -1568 -1676 -1690 -1801 0
-1469 -1568 -1676 -1691 -1801 0
-1569 -1676 -1698 -1801 0
-1469 -1569 -1676 -1700 -1801 0
-1541 -1569 -1676 -1707 -1801 0
-1469 -1571 -1676 -1728 -1801 0
-1572 -1676 -1736 -1801 0
-1573 -1676 -1747 -1801 0
-1462 -1573 -1676 -1749 -1801 0
-1469 -1573 -1676 -1750 -1801 0
-1541 -1573 -1676 -1756 -1801 0
-1462 -1574 -1676 -1759 -1801 0
-1541 -1574 -1676 -1764 -1801 0
-1575 -1676 -1767 -1801 0
-1541 -1575 -1676 -1775 -1801 0
-1576 -1676 -1778 -1801 0
-1437 -1630 -1676 -1786 -1801 0
-1423 -1541 -1744 -1803 0
-1423 -1541 -1776 -1804 0
-1423 -1541 -1805 0
-1806 0
-1423 -1453 -1541 -1807 0
-1415 -1425 -1453 -1469 -1807 0
-1418 -1462 -1734 -1802 0
-1418 -1434 -1462 -1676 -1801 0
-1418 -1453 -1462 -1678 -1801 0
-1418 -1462 -1478 -1680 -1801 0
-1418 -1462 -1485 -1681 -1801 0
-1418 -1462 -1494 -1682 -1801 0
-1418 -1462 -1511 -1683 -1801 0
-1418 -1462 -1519 -1684 -1801 0
-1418 -1462 -1744 -1803 0
-1418 -1462 -1776 -1804 0
-1418 -1462 -1805 0
-1418 -1453 -1462 -1807 0
-1419 -1453 -1469 -1807 0
-1420 -1425 -1469 -1504 -1805 0
-1425 -1457 -1469 -1504 -1807 0
-1425 -1458 -1469 -1529 -1807 0
-1425 -1469 -1495 -1682 -1801 0
-1462 -1483 -1498 -1680 -1801 0
-1462 -1491 -1498 -1681 -1801 0
-1456 -1462 -1491 -1498 -1807 0
-1456 -1469 -1491 -1499 -1807 0
-1483 -1502 -1541 -1680 -1801 0
-1491 -1502 -1541 -1681 -1801 0
-1456 -1491 -1502 -1541 -1807 0
-1425 -1469 -1512 -1683 -1801 0
-1425 -1469 -1585 -1688 -1807 0
-1425 -1469 -1586 -1697 -1807 0
-1462 -1551 -1711 -1734 -1802 0
-1469 -1551 -1712 -1734 -1802 0
-1541 -1551 -1716 -1734 -1802 0
-1425 -1469 -1589 -1726 -1807 0
-1425 -1469 -1735 -1802 0
-1425 -1469 -1504 -1740 -1802 0
-1425 -1469 -1529 -1743 -1802 0
-1425 -1469 -1745 -1803 0
-1425 -1469 -1495 -1753 -1803 0
-1425 -1469 -1504 -1754 -1803 0
-1425 -1469 -1592 -1765 -1807 0
-1425 -1469 -1495 -1781 -1804 0
-1425 -1469 -1504 -1782 -1804 0
-1425 -1469 -1529 -1784 -1804 0
-1462 -1630 -1681 -1787 -1801 0
-1456 -1462 -1630 -1787 -1807 0
-1456 -1541 -1630 -1790 -1807 0
-1425 -1469 -1483 -1495 -1808 0
-1425 -1469 -1504 -1809 0
-1425 -1469 -1529 -1810 0
-1436 -1462 -1676 -1801 -1904 0
-1436 -1676 -1801 -1909 0
-1681 -1801 -1911 0
-1437 -1676 -1801 -1911 0
-1462 -1574 -1676 -1801 -1927 0
-1434 -1462 -1676 -1801 -2531 0
-1425 -1469 -1529 -1807 -2533 0
-1438 -1676 -1801 -2535 0
-1441 -1469 -1676 -1801 -2537 0
-1483 -1680 -1801 -2543 0
-1684 -1801 -2547 0
-1684 -1801 -2550 0
-1462 -1571 -1676 -1801 -2557 0
-1425 -1469 -1504 -1802 -2558 0
-1462 -2560 0
-1425 -1469 -1495 -2561 0
-1438 -1504 -1676 -1801 -3058 0
-1676 -1801 -3069 0
-1441 -1676 -1801 -3077 0
-1569 -1676 -1801 -3080 0
-1541 -1569 -1676 -1801 -3081 0
-1425 -1469 -1589 -1807 -3083 0
-1425 -1469 -1495 -1692 -3088 0
-1425 -1469 -1495 -1729 -3089 0
-1425 -1469 -1491 -1495 -3091 0
-1437 -1541 -1676 -1801 -3762 0
-1483 -1541 -1680 -1801 -3763 0
-1438 -1462 -1676 -1801 -3764 0
-1676 -1801 -3769 0
-1684 -1801 -3772 0
-1425 -1469 -1802 -3777 0
-1541 -1573 -1676 -1801 -3779 0
-1575 -1676 -1801 -3780 0
-1437 -1541 -1676 -1801 -4156 0
-1541 -1573 -1676 -1801 -4165 0
-1435 -1676 -1801 -4175 0
-1425 -1469 -1504 -1730 -3089 0
-1425 -1469 -1529 -1733 -3089 0
-1425 -1469 -1529 -1695 -3088 0
-1425 -1457 -1469 -1504 -3090 0
-1415 -1425 -1469 -1734 -1802 0
-1415 -1425 -1469 -1744 -1803 0
-1415 -1425 -1469 -1776 -1804 0
-1419 -1434 -1469 -1676 -1801 0
-1419 -1453 -1469 -1678 -1801 0
-1419 -1469 -1478 -1680 -1801 0
-1416 -1436 -1478 -1676 -1801 0
-1416 -1437 -1485 -1676 -1801 0
-1416 -1485 -1681 -1801 0
-1487 -1681 -1801 0
-1416 -1439 -1511 -1676 -1801 0
-1416 -1511 -1683 -1801 0
-1455 -1678 -1801 0
-1658 -1684 -1801 0
-1425 -1469 -1688 -3088 0
-1559 -1688 -3088 0
-1616 -1808 0
-1643 -1809 0
-1646 -1809 0
-1531 -1810 0
-1665 -1810 0
-1418 -1462 -1494 -2561 0
-2543 -2561 0
-1494 -1541 -1551 -1716 -2561 0
-1416 -1494 -2561 0
-1416 -1734 -1802 0
-1747 -1803 0
-1778 -1804 0
-1416 -1805 0
-1416 -1453 -1807 0
-1495 -1566 -2561 0
-1502 -1541 -2561 0
-1495 -2561 -3058 0
-1487 -3091 0
-1643 -1730 -3089 0
-1531 -1733 -3089 0
-1531 -1695 -3088 0
-1416 -1453 -3090 0
-1455 -3090 0
-1455 -1807 0
-1424 -1455 -1495 -2561 0
-1426 -1495 -1616 -2561 0
-1416 -1427 -1485 -1495 -2561 0
-1427 -1487 -1495 -2561 0
-1429 -1495 -1646 -2561 0
-1430 -1495 -1654 -2561 0
-1431 -1495 -1520 -2561 0
-1432 -1495 -1531 -2561 0
-1416 -1460 -2560 0
-1455 -1463 -2560 0
-1466 -1514 -2560 0
-1467 -1531 -2560 0
-1416 -1453 -1470 -1499 -2561 0
-1455 -1470 -1499 -2561 0
-1416 -1472 -1478 -1499 -2561 0
-1472 -1499 -1616 -2561 0
-1473 -1487 -1499 -2561 0
-1474 -1499 -1654 -2561 0
-1475 -1499 -1520 -2561 0
-1476 -1499 -1531 -2561 0
-1496 -1570 -2561 0
-1455 -1497 -2561 0
-1500 -1514 -2561 0
-1501 -1531 -2561 0
-1416 -1502 -1538 -2561 0
-1502 -1540 -1570 -2561 0
-1416 -1453 -1502 -1542 -2561 0
-1502 -1544 -1616 -2561 0
-1487 -1502 -1545 -2561 0
-1502 -1547 -1646 -2561 0
-1502 -1531 -1548 -2561 0
-1495 -1558 -1698 -2561 0
-1495 -1560 -1736 -2561 0
-1495 -1561 -1747 -2561 0
-1495 -1563 -1767 -2561 0
-1495 -1564 -1778 -2561 0
-1495 -1565 -1786 -2561 0
-1596 -1698 -2560 0
-1598 -2560 0
-1599 -1736 -2560 0
-1600 -1747 -2560 0
-1601 -1786 -2560 0
-1602 -2560 0
-1499 -1604 -1698 -2561 0
-1499 -1606 -2561 0
-1499 -1608 -1736 -2561 0
-1499 -1609 -1747 -2561 0
-1499 -1610 -1767 -2561 0
-1499 -1611 -1778 -2561 0
-1499 -1612 -2561 0
-1631 -1677 -2561 0
-1633 -1698 -2561 0
-1636 -1736 -2561 0
-1638 -1767 -2561 0
-1639 -1778 -2561 0
-1640 -1786 -2561 0
-1502 -1670 -1677 -2561 0
-1502 -1672 -1736 -2561 0
-1502 -1673 -1747 -2561 0
-1502 -1675 -1767 -2561 0
-1416 -1687 -3088 0
-1455 -1689 -3088 0
-1514 -1693 -3088 0
-1520 -1694 -3088 0
-1416 -1597 -1708 -2560 0
-1570 -1597 -1709 -2560 0
-1416 -1453 -1597 -1710 -2560 0
-1597 -1646 -1713 -2560 0
-1597 -1654 -1714 -2560 0
-1520 -1597 -1715 -2560 0
-1455 -1727 -3089 0
-1514 -1731 -3089 0
-1520 -1732 -3089 0
-1416 -1495 -1562 -1757 -2561 0
-1455 -1495 -1562 -1758 -2561 0
-1487 -1495 -1562 -1760 -2561 0
-1495 -1520 -1562 -1762 -2561 0
-1495 -1531 -1562 -1763 -2561 0
-1570 -1903 -2560 0
-1698 -1914 -2561 0
-1416 -1597 -1921 -2560 0
-1597 -1654 -1922 -2560 0
-1654 -1924 -3089 0
-1416 -1734 -1928 0
-1736 -1928 0
-1736 -1802 0
-1502 -1531 -2538 -2561 0
-1502 -1677 -2551 -2561 0
-1502 -2552 -2561 0
-1597 -1646 -2555 -2560 0
-1416 -2556 -3089 0
-1499 -1646 -2561 -3060 0
-1499 -1520 -2561 -3061 0
-1416 -1502 -2561 -3065 0
-1767 -2560 -3072 0
-1416 -1495 -1562 -2561 -3084 0
-1495 -1514 -1562 -2561 -3085 0
-1495 -2561 -3384 -4175 0
-1495 -1616 -2561 -3386 -4175 0
-1487 -1495 -2561 -3387 -4175 0
-1495 -1646 -2561 -3389 -4175 0
-1495 -1654 -2561 -3390 -4175 0
-1495 -1520 -2561 -3391 -4175 0
-1495 -1531 -2561 -3392 -4175 0
-1416 -2560 -3418 -4175 0
-2560 -3420 -4175 0
-2560 -3421 -4175 0
-1514 -2560 -3424 -4175 0
-1531 -2560 -3425 -4175 0
-1425 -1495 -2561 -3427 -4175 0
-1499 -2561 -3428 -4175 0
-1499 -1616 -2561 -3430 -4175 0
-1416 -1485 -1499 -2561 -3431 -4175 0
-1487 -1499 -2561 -3431 -4175 0
-1499 -1514 -2561 -3432 -4175 0
-1499 -1520 -2561 -3433 -4175 0
-1499 -1531 -2561 -3434 -4175 0
-1416 -2561 -3452 -4175 0
-1570 -2561 -3454 -4175 0
-2561 -3455 -4175 0
-1654 -2561 -3458 -4175 0
-1531 -2561 -3459 -4175 0
-1416 -1502 -2561 -3495 -4175 0
-1502 -1570 -2561 -3497 -4175 0
-1502 -2561 -3498 -4175 0
-1502 -2561 -3499 -4175 0
-1416 -1478 -1502 -2561 -3501 -4175 0
-1502 -1646 -2561 -3503 -4175 0
-1502 -1531 -2561 -3504 -4175 0
-1495 -1698 -2561 -3514 -4175 0
-1495 -2561 -3515 -4175 0
-1495 -1736 -2561 -3516 -4175 0
-1495 -1747 -2561 -3517 -4175 0
-1495 -1767 -2561 -3519 -4175 0
-1495 -1778 -2561 -3520 -4175 0
-1495 -1786 -2561 -3521 -4175 0
-1495 -2561 -3522 -4175 0
-2560 -3550 -4175 0
-1736 -2560 -3551 -4175 0
-1747 -2560 -3552 -4175 0
-1786 -2560 -3553 -4175 0
-2560 -3554 -4175 0
-1499 -1698 -2561 -3556 -4175 0
-1499 -2561 -3558 -4175 0
-1499 -1736 -2561 -3559 -4175 0
-1499 -1747 -2561 -3560 -4175 0
-1499 -1767 -2561 -3561 -4175 0
-1499 -1778 -2561 -3562 -4175 0
-1499 -2561 -3563 -4175 0
-1677 -2561 -3581 -4175 0
-1698 -2561 -3583 -4175 0
-1736 -2561 -3586 -4175 0
-1767 -2561 -3588 -4175 0
-1778 -2561 -3589 -4175 0
-1786 -2561 -3590 -4175 0
-1502 -1677 -2561 -3618 -4175 0
-1502 -1736 -2561 -3620 -4175 0
-1502 -1747 -2561 -3621 -4175 0
-1502 -1767 -2561 -3623 -4175 0
-1416 -3088 -3635 -4175 0
-3088 -3637 -4175 0
-1514 -3088 -3641 -4175 0
-1520 -3088 -3642 -4175 0
-1531 -3088 -3643 -4175 0
-1570 -1597 -2560 -3656 -4175 0
-1499 -1570 -1605 -2561 -3656 -4175 0
-1416 -1634 -1708 -2561 0
-1570 -1634 -1709 -2561 0
-1416 -1453 -1634 -1710 -2561 0
-1634 -1646 -1713 -2561 0
-1514 -1634 -1714 -2561 0
-1520 -1634 -1715 -2561 0
-1416 -1634 -1921 -2561 0
-1416 -1921 -2542 -2561 0
-1495 -1570 -1709 -2561 -3067 0
-1416 -1495 -1708 -2561 -3067 0
-1495 -1520 -1715 -2561 -3067 0
-1416 -1495 -1921 -2561 -3067 0
-1710 -2560 -3549 -4175 0
-1416 -1499 -1708 -2561 -3557 -4175 0
-1499 -1570 -1709 -2561 -3557 -4175 0
-1499 -1520 -1715 -2561 -3557 -4175 0
-1416 -1499 -1921 -2561 -3557 -4175 0
-1710 -2561 -3584 -4175 0
-3089 -3674 -4175 0
-1643 -3089 -3677 -4175 0
-1654 -3089 -3678 -4175 0
-1520 -3089 -3679 -4175 0
-1531 -3089 -3680 -4175 0
-1416 -1495 -1562 -2561 -3703 -4175 0
-1495 -1562 -2561 -3704 -4175 0
-1487 -1495 -1562 -2561 -3706 -4175 0
-1495 -1520 -1562 -2561 -3708 -4175 0
-1495 -1531 -1562 -2561 -3709 -4175 0
-1677 -3744 -4175 0
-1416 -1734 -3745 -4175 0
-1747 -3746 -4175 0
-1778 -3747 -4175 0
-1416 -3748 -4175 0
-3749 -4175 0
-3750 -4175 0
-1616 -3751 -4175 0
-1643 -3752 -4175 0
-1531 -3753 -4175 0
-1594 -2560 -3756 0
-1499 -1520 -2561 -3758 0
-1502 -1514 -2561 -3767 0
-2560 -3770 0
-1499 -1698 -2561 -3771 0
-9 -11 -12 -13 -14 -15 -16 -24 -25 -26 -30 -33 -34 -35 -36 -37 -38 -39 -40 -41 -42 -43 -44 -45 -46 -47 -48 -50 -53 -55 -57 -58 -59 -60 -61 -63 -64 -65 -66 -67 -68 -69 -72 -74 -77 -78 -80 -81 -83 -86 -88 -90 -91 -94 -95 -96 -97 -98 -99 -101 -102 -103 -104 -105 -106 -107 -109 -112 -113 -114 -116 -117 -118 -119 -120 -121 -122 -124 -126 -131 -132 -133 -134 -136 -138 -139 -140 -141 -142 -143 -144 -145 -146 -149 -150 -151 -152 -153 -155 -156 -157 -158 -159 -160 -163 -164 -165 -166 -167 -168 -169 -170 -171 -172 -173 -175 -176 -177 -178 -179 -180 -181 -182 -183 -188 -192 -193 -196 -197 -198 -199 -200 -201 -202 -203 -204 -205 -206 -207 -208 -209 -210 -211 -212 -213 -214 -215 -216 -217 -219 -220 -223 -224 -225 -227 -228 -229 -230 -231 -232 -235 -236 -237 -239 -240 -241 -242 -243 -244 -245 -247 -248 -249 -251 -252 -253 -254 -255 -256 -257 -259 -260 -261 -262 -263 -265 -266 -267 -268 -269 -271 -272 -274 -275 -276 -277 -278 -279 -280 -281 -282 -284 -288 -289 -290 -291 -292 -293 -294 -295 -296 -297 -1415 -1416 -1417 -1418 -1419 -1420 -1421 -1422 -1423 -1434 -1435 -1436 -1437 -1439 -1440 -1441 -1443 -1448 -1449 -1450 -1451 -1453 -1454 -1455 -1456 -1464 -1478 -1480 -1482 -1485 -1487 -1495 -1502 -1505 -1506 -1508 -1510 -1511 -1514 -1517 -1519 -1520 -1523 -1526 -1530 -1531 -1551 -1556 -1562 -1572 -1575 -1577 -1578 -1580 -1581 -1587 -1591 -1595 -1607 -1655 -1656 -1657 -1660 -1661 -1662 -1668 -1669 -1701 -1703 -1705 -1723 -1724 -1725 -1741 -1744 -1746 -1747 -1766 -1772 -1773 -1776 -1791 -1793 -1794 -1795 -1860 -1916 -2262 -2535 -2536 -2546 -2547 -2550 -2553 -2555 -2560 -2561 -3768 0
-9 -11 -12 -13 -14 -15 -16 -24 -25 -26 -30 -33 -34 -35 -36 -37 -38 -39 -40 -41 -42 -43 -44 -45 -46 -47 -48 -50 -53 -55 -57 -58 -59 -60 -61 -63 -64 -65 -66 -67 -68 -69 -72 -74 -77 -78 -80 -81 -83 -86 -88 -90 -91 -94 -95 -96 -97 -98 -99 -101 -102 -103 -104 -105 -106 -107 -109 -112 -113 -114 -116 -117 -118 -119 -120 -121 -122 -124 -126 -131 -132 -133 -134 -136 -138 -139 -140 -141 -142 -143 -144 -145 -146 -149 -150 -151 -152 -153 -155 -156 -157 -158 -159 -160 -163 -164 -165 -166 -167 -168 -169 -170 -171 -172 -173 -175 -176 -177 -178 -179 -180 -181 -182 -183 -188 -192 -193 -196 -197 -198 -199 -200 -201 -202 -203 -204 -205 -206 -207 -208 -209 -210 -211 -212 -213 -214 -215 -216 -217 -219 -220 -223 -224 -225 -227 -228 -229 -230 -231 -232 -235 -236 -237 -239 -240 -241 -242 -243 -244 -245 -247 -248 -249 -251 -252 -253 -254 -255 -256 -257 -259 -260 -261 -262 -263 -265 -266 -267 -268 -269 -271 -274 -275 -276 -277 -278 -279 -280 -281 -284 -288 -289 -290 -291 -292 -293 -294 -295 -296 -297 -1415 -1416 -1417 -1418 -1419 -1421 -1422 -1423 -1434 -1435 -1436 -1437 -1439 -1440 -1441 -1443 -1448 -1449 -1450 -1451 -1453 -1456 -1464 -1478 -1480 -1482 -1485 -1487 -1495 -1502 -1505 -1506 -1508 -1510 -1511 -1514 -1517 -1519 -1520 -1523 -1526 -1530 -1531 -1551 -1556 -1562 -1572 -1575 -1577 -1578 -1580 -1581 -1587 -1591 -1595 -1607 -1655 -1656 -1657 -1658 -1660 -1661 -1662 -1668 -1669 -1701 -1703 -1705 -1713 -1723 -1724 -1725 -1741 -1744 -1746 -1747 -1766 -1772 -1773 -1775 -1776 -1790 -1791 -1793 -1794 -1795 -1860 -1916 -2262 -2535 -2536 -2546 -2550 -2553 -2560 -2561 -3380 -3768 -4175 0
-9 -11 -12 -13 -14 -15 -16 -24 -25 -26 -30 -33 -34 -35 -36 -37 -38 -39 -40 -41 -42 -43 -44 -45 -46 -47 -48 -50 -53 -55 -57 -58 -59 -60 -61 -63 -64 -65 -66 -67 -68 -69 -72 -74 -77 -78 -80 -81 -83 -86 -88 -90 -91 -94 -95 -96 -97 -98 -99 -101 -102 -103 -104 -105 -106 -107 -109 -112 -113 -114 -116 -117 -118 -119 -120 -121 -122 -124 -126 -131 -132 -133 -134 -136 -138 -139 -140 -141 -142 -143 -144 -145 -146 -149 -150 -151 -152 -153 -155 -156 -157 -158 -159 -160 -163 -164 -165 -166 -167 -168 -169 -170 -171 -172 -173 -175 -176 -177 -178 -179 -180 -181 -182 -183 -188 -192 -193 -196 -197 -198 -199 -200 -202 -203 -204 -205 -206 -207 -208 -209 -210 -211 -212 -213 -214 -215 -216 -217 -219 -220 -224 -225 -227 -228 -229 -230 -231 -232 -235 -236 -237 -239 -240 -241 -242 -244 -245 -247 -248 -249 -251 -252 -253 -254 -255 -256 -257 -259 -260 -261 -262 -266 -267 -268 -269 -271 -273 -274 -276 -277 -284 -288 -289 -290 -291 -292 -293 -294 -295 -296 -297 -1415 -1416 -1417 -1418 -1419 -1421 -1422 -1423 -1434 -1435 -1436 -1437 -1439 -1440 -1441 -1443 -1448 -1449 -1450 -1451 -1453 -1456 -1464 -1478 -1480 -1482 -1485 -1487 -1495 -1502 -1505 -1506 -1508 -1510 -1511 -1514 -1517 -1519 -1520 -1523 -1526 -1530 -1531 -1551 -1556 -1562 -1572 -1575 -1577 -1578 -1580 -1581 -1587 -1591 -1607 -1622 -1655 -1656 -1657 -1658 -1660 -1661 -1662 -1668 -1669 -1677 -1688 -1692 -1701 -1703 -1705 -1713 -1723 -1724 -1725 -1736 -1741 -1744 -1746 -1747 -1759 -1764 -1766 -1767 -1772 -1773 -1775 -1778 -1781 -1784 -1787 -1789 -1790 -1791 -1793 -1794 -1795 -1916 -2262 -2535 -2536 -2546 -2550 -2560 -3088 -3380 -3656 -3768 -4175 0
-9 -11 -12 -13 -14 -15 -16 -24 -25 -26 -30 -31 -33 -34 -35 -36 -37 -38 -39 -40 -41 -42 -43 -44 -45 -46 -47 -48 -50 -53 -55 -57 -58 -59 -60 -61 -63 -64 -65 -66 -67 -68 -69 -72 -74 -77 -78 -80 -81 -83 -86 -88 -90 -91 -94 -95 -96 -97 -98 -99 -101 -102 -103 -104 -105 -106 -107 -109 -112 -113 -114 -116 -117 -118 -119 -120 -121 -122 -124 -126 -131 -132 -133 -134 -136 -138 -139 -140 -141 -142 -143 -144 -145 -146 -149 -150 -151 -152 -153 -155 -156 -157 -158 -159 -160 -163 -164 -165 -166 -167 -168 -169 -170 -171 -172 -173 -175 -176 -177 -178 -179 -180 -181 -182 -183 -188 -192 -193 -196 -197 -198 -199 -200 -202 -203 -204 -205 -206 -207 -208 -209 -210 -211 -212 -213 -214 -215 -216 -217 -219 -220 -224 -225 -227 -228 -229 -230 -231 -232 -235 -236 -237 -239 -240 -241 -242 -244 -245 -247 -248 -249 -251 -252 -253 -254 -255 -256 -257 -259 -260 -261 -262 -266 -267 -268 -269 -271 -273 -274 -276 -277 -284 -288 -289 -290 -291 -292 -293 -294 -295 -296 -297 -1415 -1416 -1417 -1418 -1419 -1420 -1421 -1422 -1423 -1434 -1435 -1436 -1437 -1439 -1440 -1441 -1443 -1448 -1449 -1450 -1451 -1454 -1455 -1456 -1458 -1464 -1478 -1480 -1482 -1485 -1487 -1495 -1502 -1505 -1506 -1508 -1510 -1511 -1514 -1517 -1519 -1520 -1523 -1526 -1530 -1531 -1551 -1556 -1562 -1572 -1575 -1577 -1578 -1580 -1581 -1587 -1591 -1607 -1622 -1655 -1656 -1657 -1658 -1660 -1661 -1662 -1668 -1669 -1677 -1688 -1692 -1701 -1703 -1705 -1713 -1723 -1724 -1725 -1736 -1741 -1744 -1746 -1747 -1759 -1764 -1766 -1767 -1772 -1773 -1775 -1778 -1781 -1784 -1787 -1789 -1790 -1791 -1793 -1794 -1795 -1916 -2262 -2535 -2536 -2546 -2550 -2560 -3088 -3656 -3768 0
-1502 -1542 -1594 -2561 0
-9 -11 -12 -13 -14 -15 -16 -24 -25 -26 -30 -31 -33 -34 -35 -36 -37 -38 -39 -40 -41 -42 -43 -44 -45 -46 -47 -48 -50 -53 -55 -57 -58 -59 -60 -61 -63 -64 -65 -66 -67 -68 -69 -72 -74 -77 -78 -80 -81 -83 -86 -88 -90 -91 -94 -95 -96 -97 -98 -99 -101 -102 -103 -104 -105 -106 -107 -109 -112 -113 -114 -116 -117 -118 -119 -120 -121 -122 -124 -126 -131 -132 -133 -134 -136 -138 -139 -140 -141 -142 -143 -144 -145 -146 -149 -150 -151 -152 -153 -155 -156 -157 -158 -159 -160 -163 -164 -165 -166 -167 -168 -169 -170 -171 -172 -173 -175 -176 -177 -178 -179 -180 -181 -182 -183 -188 -192 -193 -196 -197 -198 -199 -200 -202 -203 -204 -205 -206 -207 -208 -209 -210 -211 -212 -213 -214 -215 -216 -217 -219 -220 -223 -224 -225 -227 -228 -229 -230 -231 -232 -235 -236 -237 -239 -240 -241 -242 -244 -245 -247 -248 -249 -251 -252 -253 -254 -255 -256 -257 -259 -260 -261 -262 -266 -267 -268 -269 -271 -274 -276 -277 -284 -288 -289 -290 -291 -292 -293 -294 -295 -296 -297 -1415 -1416 -1417 -1418 -1419 -1421 -1422 -1423 -1434 -1435 -1436 -1437 -1439 -1440 -1441 -1443 -1448 -1449 -1450 -1451 -1456 -1464 -1478 -1480 -1482 -1485 -1487 -1495 -1502 -1505 -1506 -1508 -1510 -1511 -1514 -1517 -1519 -1520 -1523 -1526 -1530 -1531 -1551 -1556 -1562 -1572 -1575 -1577 -1578 -1580 -1581 -1587 -1591 -1607 -1622 -1655 -1656 -1657 -1658 -1660 -1661 -1662 -1668 -1669 -1677 -1688 -1692 -1701 -1703 -1705 -1713 -1723 -1724 -1725 -1736 -1741 -1744 -1746 -1747 -1759 -1764 -1766 -1767 -1772 -1773 -1775 -1776 -1778 -1781 -1784 -1787 -1789 -1790 -1791 -1793 -1794 -1795 -1916 -2262 -2535 -2536 -2546 -2550 -2560 -3088 -3380 -3768 -4175 0
-9 -11 -12 -13 -14 -15 -16 -24 -25 -26 -30 -31 -33 -34 -35 -36 -37 -38 -39 -40 -41 -42 -43 -44 -45 -46 -47 -48 -49 -50 -53 -55 -57 -58 -59 -61 -63 -64 -65 -66 -67 -68 -69 -72 -74 -77 -78 -80 -81 -83 -86 -88 -90 -91 -94 -95 -97 -98 -99 -101 -102 -103 -104 -105 -106 -107 -109 -112 -113 -114 -116 -117 -118 -119 -120 -121 -122 -124 -126 -131 -132 -133 -134 -136 -138 -139 -140 -141 -142 -143 -144 -145 -146 -149 -150 -151 -152 -153 -155 -156 -157 -158 -159 -160 -163 -164 -165 -166 -167 -168 -169 -170 -171 -172 -173 -175 -176 -177 -178 -179 -180 -181 -182 -183 -188 -192 -193 -196 -197 -198 -199 -200 -202 -203 -204 -205 -206 -207 -208 -209 -210 -211 -212 -213 -214 -215 -216 -217 -219 -220 -224 -225 -227 -228 -229 -230 -231 -232 -235 -236 -237 -239 -240 -241 -242 -244 -245 -247 -248 -249 -251 -252 -253 -254 -255 -256 -257 -259 -260 -261 -262 -266 -267 -268 -269 -271 -274 -276 -277 -284 -288 -289 -290 -291 -292 -293 -294 -295 -296 -297 -1415 -1416 -1418 -1419 -1421 -1422 -1423 -1434 -1435 -1436 -1437 -1439 -1440 -1441 -1443 -1448 -1449 -1450 -1451 -1456 -1464 -1480 -1482 -1485 -1487 -1492 -1495 -1502 -1505 -1506 -1508 -1510 -1511 -1514 -1517 -1519 -1520 -1523 -1526 -1530 -1531 -1534 -1551 -1556 -1562 -1572 -1575 -1577 -1578 -1580 -1581 -1587 -1591 -1607 -1622 -1655 -1656 -1657 -1658 -1660 -1661 -1662 -1668 -1669 -1677 -1688 -1692 -1701 -1703 -1705 -1713 -1723 -1724 -1725 -1736 -1741 -1744 -1746 -1747 -1759 -1764 -1766 -1767 -1772 -1773 -1775 -1776 -1778 -1781 -1784 -1787 -1789 -1790 -1791 -1793 -1794 -1795 -1916 -2262 -2535 -2536 -2546 -2550 -2560 -3088 -3380 -3656 -3768 -4175 0
-1502 -1616 -2561 -3501 -4175 0
